p cnf 213 934
-1 -33 0
-2 -33 0
1 2 33 0
1 2 -34 0
-1 -2 -34 0
-1 2 34 0
1 -2 34 0
33 -35 0
-3 -35 0
3 -33 35 0
3 -33 -36 0
-3 33 -36 0
3 33 36 0
-3 -33 36 0
35 -37 0
-4 -37 0
4 -35 37 0
4 -35 -38 0
-4 35 -38 0
4 35 38 0
-4 -35 38 0
37 -39 0
-5 -39 0
5 -37 39 0
5 -37 -40 0
-5 37 -40 0
5 37 40 0
-5 -37 40 0
39 -41 0
-6 -41 0
6 -39 41 0
6 -39 -42 0
-6 39 -42 0
6 39 42 0
-6 -39 42 0
41 -43 0
-7 -43 0
7 -41 43 0
7 -41 -44 0
-7 41 -44 0
7 41 44 0
-7 -41 44 0
43 -45 0
-8 -45 0
8 -43 45 0
8 -43 -46 0
-8 43 -46 0
8 43 46 0
-8 -43 46 0
2 -47 0
1 -47 0
-1 -2 47 0
-1 -2 -48 0
1 2 -48 0
1 -2 48 0
-1 2 48 0
-2 -3 49 0
-3 -47 49 0
-2 -47 49 0
2 3 -49 0
3 47 -49 0
2 47 -49 0
3 -49 -50 0
2 -49 -50 0
47 -49 -50 0
-3 49 50 0
-2 49 50 0
-47 49 50 0
-2 -3 -47 50 0
2 3 47 -50 0
-3 -4 51 0
-4 -49 51 0
-3 -49 51 0
3 4 -51 0
4 49 -51 0
3 49 -51 0
4 -51 -52 0
3 -51 -52 0
49 -51 -52 0
-4 51 52 0
-3 51 52 0
-49 51 52 0
-3 -4 -49 52 0
3 4 49 -52 0
-4 -5 53 0
-5 -51 53 0
-4 -51 53 0
4 5 -53 0
5 51 -53 0
4 51 -53 0
5 -53 -54 0
4 -53 -54 0
51 -53 -54 0
-5 53 54 0
-4 53 54 0
-51 53 54 0
-4 -5 -51 54 0
4 5 51 -54 0
-5 -6 55 0
-6 -53 55 0
-5 -53 55 0
5 6 -55 0
6 53 -55 0
5 53 -55 0
6 -55 -56 0
5 -55 -56 0
53 -55 -56 0
-6 55 56 0
-5 55 56 0
-53 55 56 0
-5 -6 -53 56 0
5 6 53 -56 0
-6 -7 57 0
-7 -55 57 0
-6 -55 57 0
6 7 -57 0
7 55 -57 0
6 55 -57 0
7 -57 -58 0
6 -57 -58 0
55 -57 -58 0
-7 57 58 0
-6 57 58 0
-55 57 58 0
-6 -7 -55 58 0
6 7 55 -58 0
-7 -8 59 0
-8 -57 59 0
-7 -57 59 0
7 8 -59 0
8 57 -59 0
7 57 -59 0
8 -59 -60 0
7 -59 -60 0
57 -59 -60 0
-8 59 60 0
-7 59 60 0
-57 59 60 0
-7 -8 -57 60 0
7 8 57 -60 0
8 -61 0
59 -61 0
-8 -59 61 0
-8 -59 -62 0
8 59 -62 0
-8 59 62 0
8 -59 62 0
50 -63 0
1 -63 0
-1 -50 63 0
-1 -50 -64 0
1 50 -64 0
1 -50 64 0
-1 50 64 0
-2 -52 65 0
-52 -63 65 0
-2 -63 65 0
2 52 -65 0
52 63 -65 0
2 63 -65 0
52 -65 -66 0
2 -65 -66 0
63 -65 -66 0
-52 65 66 0
-2 65 66 0
-63 65 66 0
-2 -52 -63 66 0
2 52 63 -66 0
-3 -54 67 0
-54 -65 67 0
-3 -65 67 0
3 54 -67 0
54 65 -67 0
3 65 -67 0
54 -67 -68 0
3 -67 -68 0
65 -67 -68 0
-54 67 68 0
-3 67 68 0
-65 67 68 0
-3 -54 -65 68 0
3 54 65 -68 0
-4 -56 69 0
-56 -67 69 0
-4 -67 69 0
4 56 -69 0
56 67 -69 0
4 67 -69 0
56 -69 -70 0
4 -69 -70 0
67 -69 -70 0
-56 69 70 0
-4 69 70 0
-67 69 70 0
-4 -56 -67 70 0
4 56 67 -70 0
-5 -58 71 0
-58 -69 71 0
-5 -69 71 0
5 58 -71 0
58 69 -71 0
5 69 -71 0
58 -71 -72 0
5 -71 -72 0
69 -71 -72 0
-58 71 72 0
-5 71 72 0
-69 71 72 0
-5 -58 -69 72 0
5 58 69 -72 0
-6 -60 73 0
-60 -71 73 0
-6 -71 73 0
6 60 -73 0
60 71 -73 0
6 71 -73 0
60 -73 -74 0
6 -73 -74 0
71 -73 -74 0
-60 73 74 0
-6 73 74 0
-71 73 74 0
-6 -60 -71 74 0
6 60 71 -74 0
-7 -62 75 0
-62 -73 75 0
-7 -73 75 0
7 62 -75 0
62 73 -75 0
7 73 -75 0
62 -75 -76 0
7 -75 -76 0
73 -75 -76 0
-62 75 76 0
-7 75 76 0
-73 75 76 0
-7 -62 -73 76 0
7 62 73 -76 0
-8 -61 77 0
-61 -75 77 0
-8 -75 77 0
8 61 -77 0
61 75 -77 0
8 75 -77 0
61 -77 -78 0
8 -77 -78 0
75 -77 -78 0
-61 77 78 0
-8 77 78 0
-75 77 78 0
-8 -61 -75 78 0
8 61 75 -78 0
66 -79 0
1 -79 0
-1 -66 79 0
-1 -66 -80 0
1 66 -80 0
1 -66 80 0
-1 66 80 0
-2 -68 81 0
-68 -79 81 0
-2 -79 81 0
2 68 -81 0
68 79 -81 0
2 79 -81 0
68 -81 -82 0
2 -81 -82 0
79 -81 -82 0
-68 81 82 0
-2 81 82 0
-79 81 82 0
-2 -68 -79 82 0
2 68 79 -82 0
-3 -70 83 0
-70 -81 83 0
-3 -81 83 0
3 70 -83 0
70 81 -83 0
3 81 -83 0
70 -83 -84 0
3 -83 -84 0
81 -83 -84 0
-70 83 84 0
-3 83 84 0
-81 83 84 0
-3 -70 -81 84 0
3 70 81 -84 0
-4 -72 85 0
-72 -83 85 0
-4 -83 85 0
4 72 -85 0
72 83 -85 0
4 83 -85 0
72 -85 -86 0
4 -85 -86 0
83 -85 -86 0
-72 85 86 0
-4 85 86 0
-83 85 86 0
-4 -72 -83 86 0
4 72 83 -86 0
-5 -74 87 0
-74 -85 87 0
-5 -85 87 0
5 74 -87 0
74 85 -87 0
5 85 -87 0
74 -87 -88 0
5 -87 -88 0
85 -87 -88 0
-74 87 88 0
-5 87 88 0
-85 87 88 0
-5 -74 -85 88 0
5 74 85 -88 0
-6 -76 89 0
-76 -87 89 0
-6 -87 89 0
6 76 -89 0
76 87 -89 0
6 87 -89 0
76 -89 -90 0
6 -89 -90 0
87 -89 -90 0
-76 89 90 0
-6 89 90 0
-87 89 90 0
-6 -76 -87 90 0
6 76 87 -90 0
-7 -78 91 0
-78 -89 91 0
-7 -89 91 0
7 78 -91 0
78 89 -91 0
7 89 -91 0
78 -91 -92 0
7 -91 -92 0
89 -91 -92 0
-78 91 92 0
-7 91 92 0
-89 91 92 0
-7 -78 -89 92 0
7 78 89 -92 0
-8 -77 93 0
-77 -91 93 0
-8 -91 93 0
8 77 -93 0
77 91 -93 0
8 91 -93 0
77 -93 -94 0
8 -93 -94 0
91 -93 -94 0
-77 93 94 0
-8 93 94 0
-91 93 94 0
-8 -77 -91 94 0
8 77 91 -94 0
84 -95 0
1 -95 0
-1 -84 95 0
-1 -84 -96 0
1 84 -96 0
1 -84 96 0
-1 84 96 0
-2 -86 97 0
-86 -95 97 0
-2 -95 97 0
2 86 -97 0
86 95 -97 0
2 95 -97 0
86 -97 -98 0
2 -97 -98 0
95 -97 -98 0
-86 97 98 0
-2 97 98 0
-95 97 98 0
-2 -86 -95 98 0
2 86 95 -98 0
-3 -88 99 0
-88 -97 99 0
-3 -97 99 0
3 88 -99 0
88 97 -99 0
3 97 -99 0
88 -99 -100 0
3 -99 -100 0
97 -99 -100 0
-88 99 100 0
-3 99 100 0
-97 99 100 0
-3 -88 -97 100 0
3 88 97 -100 0
-4 -90 101 0
-90 -99 101 0
-4 -99 101 0
4 90 -101 0
90 99 -101 0
4 99 -101 0
90 -101 -102 0
4 -101 -102 0
99 -101 -102 0
-90 101 102 0
-4 101 102 0
-99 101 102 0
-4 -90 -99 102 0
4 90 99 -102 0
-5 -92 103 0
-92 -101 103 0
-5 -101 103 0
5 92 -103 0
92 101 -103 0
5 101 -103 0
92 -103 -104 0
5 -103 -104 0
101 -103 -104 0
-92 103 104 0
-5 103 104 0
-101 103 104 0
-5 -92 -101 104 0
5 92 101 -104 0
-6 -94 105 0
-94 -103 105 0
-6 -103 105 0
6 94 -105 0
94 103 -105 0
6 103 -105 0
94 -105 -106 0
6 -105 -106 0
103 -105 -106 0
-94 105 106 0
-6 105 106 0
-103 105 106 0
-6 -94 -103 106 0
6 94 103 -106 0
-7 -93 107 0
-93 -105 107 0
-7 -105 107 0
7 93 -107 0
93 105 -107 0
7 105 -107 0
93 -107 -108 0
7 -107 -108 0
105 -107 -108 0
-93 107 108 0
-7 107 108 0
-105 107 108 0
-7 -93 -105 108 0
7 93 105 -108 0
8 -109 0
107 -109 0
-8 -107 109 0
-8 -107 -110 0
8 107 -110 0
-8 107 110 0
8 -107 110 0
-1 -111 0
-48 -111 0
1 48 111 0
1 48 -112 0
-1 -48 -112 0
-1 48 112 0
1 -48 112 0
111 -113 0
-64 -113 0
64 -111 113 0
64 -111 -114 0
-64 111 -114 0
64 111 114 0
-64 -111 114 0
113 -115 0
-80 -115 0
80 -113 115 0
80 -113 -116 0
-80 113 -116 0
80 113 116 0
-80 -113 116 0
115 -117 0
-82 -117 0
82 -115 117 0
82 -115 -118 0
-82 115 -118 0
82 115 118 0
-82 -115 118 0
117 -119 0
-96 -119 0
96 -117 119 0
96 -117 -120 0
-96 117 -120 0
96 117 120 0
-96 -117 120 0
119 -121 0
-98 -121 0
98 -119 121 0
98 -119 -122 0
-98 119 -122 0
98 119 122 0
-98 -119 122 0
121 -123 0
-100 -123 0
100 -121 123 0
100 -121 -124 0
-100 121 -124 0
100 121 124 0
-100 -121 124 0
123 -125 0
-102 -125 0
102 -123 125 0
102 -123 -126 0
-102 123 -126 0
102 123 126 0
-102 -123 126 0
125 -127 0
-104 -127 0
104 -125 127 0
104 -125 -128 0
-104 125 -128 0
104 125 128 0
-104 -125 128 0
127 -129 0
-106 -129 0
106 -127 129 0
106 -127 -130 0
-106 127 -130 0
106 127 130 0
-106 -127 130 0
129 -131 0
-108 -131 0
108 -129 131 0
108 -129 -132 0
-108 129 -132 0
108 129 132 0
-108 -129 132 0
131 -133 0
-110 -133 0
110 -131 133 0
110 -131 -134 0
-110 131 -134 0
110 131 134 0
-110 -131 134 0
133 -135 0
-109 -135 0
109 -133 135 0
109 -133 -136 0
-109 133 -136 0
109 133 136 0
-109 -133 136 0
-9 -137 0
-10 -137 0
9 10 137 0
9 10 -138 0
-9 -10 -138 0
-9 10 138 0
9 -10 138 0
137 -139 0
-11 -139 0
11 -137 139 0
11 -137 -140 0
-11 137 -140 0
11 137 140 0
-11 -137 140 0
139 -141 0
-12 -141 0
12 -139 141 0
12 -139 -142 0
-12 139 -142 0
12 139 142 0
-12 -139 142 0
141 -143 0
-13 -143 0
13 -141 143 0
13 -141 -144 0
-13 141 -144 0
13 141 144 0
-13 -141 144 0
143 -145 0
-14 -145 0
14 -143 145 0
14 -143 -146 0
-14 143 -146 0
14 143 146 0
-14 -143 146 0
145 -147 0
-15 -147 0
15 -145 147 0
15 -145 -148 0
-15 145 -148 0
15 145 148 0
-15 -145 148 0
147 -149 0
-16 -149 0
16 -147 149 0
16 -147 -150 0
-16 147 -150 0
16 147 150 0
-16 -147 150 0
12 -151 0
9 -151 0
-9 -12 151 0
-9 -12 -152 0
9 12 -152 0
9 -12 152 0
-9 12 152 0
-10 -13 153 0
-13 -151 153 0
-10 -151 153 0
10 13 -153 0
13 151 -153 0
10 151 -153 0
13 -153 -154 0
10 -153 -154 0
151 -153 -154 0
-13 153 154 0
-10 153 154 0
-151 153 154 0
-10 -13 -151 154 0
10 13 151 -154 0
-11 -14 155 0
-14 -153 155 0
-11 -153 155 0
11 14 -155 0
14 153 -155 0
11 153 -155 0
14 -155 -156 0
11 -155 -156 0
153 -155 -156 0
-14 155 156 0
-11 155 156 0
-153 155 156 0
-11 -14 -153 156 0
11 14 153 -156 0
-12 -15 157 0
-15 -155 157 0
-12 -155 157 0
12 15 -157 0
15 155 -157 0
12 155 -157 0
15 -157 -158 0
12 -157 -158 0
155 -157 -158 0
-15 157 158 0
-12 157 158 0
-155 157 158 0
-12 -15 -155 158 0
12 15 155 -158 0
-13 -16 159 0
-16 -157 159 0
-13 -157 159 0
13 16 -159 0
16 157 -159 0
13 157 -159 0
16 -159 -160 0
13 -159 -160 0
157 -159 -160 0
-16 159 160 0
-13 159 160 0
-157 159 160 0
-13 -16 -157 160 0
13 16 157 -160 0
14 -161 0
159 -161 0
-14 -159 161 0
-14 -159 -162 0
14 159 -162 0
-14 159 162 0
14 -159 162 0
15 -163 0
161 -163 0
-15 -161 163 0
-15 -161 -164 0
15 161 -164 0
-15 161 164 0
15 -161 164 0
16 -165 0
163 -165 0
-16 -163 165 0
-16 -163 -166 0
16 163 -166 0
-16 163 166 0
16 -163 166 0
-9 -167 0
-10 -167 0
9 10 167 0
9 10 -168 0
-9 -10 -168 0
-9 10 168 0
9 -10 168 0
167 -169 0
-11 -169 0
11 -167 169 0
11 -167 -170 0
-11 167 -170 0
11 167 170 0
-11 -167 170 0
169 -171 0
-152 -171 0
152 -169 171 0
152 -169 -172 0
-152 169 -172 0
152 169 172 0
-152 -169 172 0
171 -173 0
-154 -173 0
154 -171 173 0
154 -171 -174 0
-154 171 -174 0
154 171 174 0
-154 -171 174 0
173 -175 0
-156 -175 0
156 -173 175 0
156 -173 -176 0
-156 173 -176 0
156 173 176 0
-156 -173 176 0
175 -177 0
-158 -177 0
158 -175 177 0
158 -175 -178 0
-158 175 -178 0
158 175 178 0
-158 -175 178 0
177 -179 0
-160 -179 0
160 -177 179 0
160 -177 -180 0
-160 177 -180 0
160 177 180 0
-160 -177 180 0
179 -181 0
-162 -181 0
162 -179 181 0
162 -179 -182 0
-162 179 -182 0
162 179 182 0
-162 -179 182 0
181 -183 0
-164 -183 0
164 -181 183 0
164 -181 -184 0
-164 181 -184 0
164 181 184 0
-164 -181 184 0
183 -185 0
-166 -185 0
166 -183 185 0
166 -183 -186 0
-166 183 -186 0
166 183 186 0
-166 -183 186 0
185 -187 0
-165 -187 0
165 -185 187 0
165 -185 -188 0
-165 185 -188 0
165 185 188 0
-165 -185 188 0
64 -189 0
9 -189 0
-9 -64 189 0
-9 -64 -190 0
9 64 -190 0
9 -64 190 0
-9 64 190 0
-10 -80 191 0
-80 -189 191 0
-10 -189 191 0
10 80 -191 0
80 189 -191 0
10 189 -191 0
80 -191 -192 0
10 -191 -192 0
189 -191 -192 0
-80 191 192 0
-10 191 192 0
-189 191 192 0
-10 -80 -189 192 0
10 80 189 -192 0
-11 -82 193 0
-82 -191 193 0
-11 -191 193 0
11 82 -193 0
82 191 -193 0
11 191 -193 0
82 -193 -194 0
11 -193 -194 0
191 -193 -194 0
-82 193 194 0
-11 193 194 0
-191 193 194 0
-11 -82 -191 194 0
11 82 191 -194 0
-96 -152 195 0
-96 -193 195 0
-152 -193 195 0
96 152 -195 0
96 193 -195 0
152 193 -195 0
96 -195 -196 0
152 -195 -196 0
193 -195 -196 0
-96 195 196 0
-152 195 196 0
-193 195 196 0
-96 -152 -193 196 0
96 152 193 -196 0
-98 -154 197 0
-98 -195 197 0
-154 -195 197 0
98 154 -197 0
98 195 -197 0
154 195 -197 0
98 -197 -198 0
154 -197 -198 0
195 -197 -198 0
-98 197 198 0
-154 197 198 0
-195 197 198 0
-98 -154 -195 198 0
98 154 195 -198 0
-100 -156 199 0
-100 -197 199 0
-156 -197 199 0
100 156 -199 0
100 197 -199 0
156 197 -199 0
100 -199 -200 0
156 -199 -200 0
197 -199 -200 0
-100 199 200 0
-156 199 200 0
-197 199 200 0
-100 -156 -197 200 0
100 156 197 -200 0
-102 -158 201 0
-102 -199 201 0
-158 -199 201 0
102 158 -201 0
102 199 -201 0
158 199 -201 0
102 -201 -202 0
158 -201 -202 0
199 -201 -202 0
-102 201 202 0
-158 201 202 0
-199 201 202 0
-102 -158 -199 202 0
102 158 199 -202 0
-104 -160 203 0
-104 -201 203 0
-160 -201 203 0
104 160 -203 0
104 201 -203 0
160 201 -203 0
104 -203 -204 0
160 -203 -204 0
201 -203 -204 0
-104 203 204 0
-160 203 204 0
-201 203 204 0
-104 -160 -201 204 0
104 160 201 -204 0
-106 -162 205 0
-106 -203 205 0
-162 -203 205 0
106 162 -205 0
106 203 -205 0
162 203 -205 0
106 -205 -206 0
162 -205 -206 0
203 -205 -206 0
-106 205 206 0
-162 205 206 0
-203 205 206 0
-106 -162 -203 206 0
106 162 203 -206 0
-108 -164 207 0
-108 -205 207 0
-164 -205 207 0
108 164 -207 0
108 205 -207 0
164 205 -207 0
108 -207 -208 0
164 -207 -208 0
205 -207 -208 0
-108 207 208 0
-164 207 208 0
-205 207 208 0
-108 -164 -205 208 0
108 164 205 -208 0
-110 -166 209 0
-110 -207 209 0
-166 -207 209 0
110 166 -209 0
110 207 -209 0
166 207 -209 0
110 -209 -210 0
166 -209 -210 0
207 -209 -210 0
-110 209 210 0
-166 209 210 0
-207 209 210 0
-110 -166 -207 210 0
110 166 207 -210 0
-109 -165 211 0
-109 -209 211 0
-165 -209 211 0
109 165 -211 0
109 209 -211 0
165 209 -211 0
109 -211 -212 0
165 -211 -212 0
209 -211 -212 0
-109 211 212 0
-165 211 212 0
-209 211 212 0
-109 -165 -209 212 0
109 165 209 -212 0
-1 -213 0
48 -213 0
-190 -213 0
-192 -213 0
-194 -213 0
-196 -213 0
198 -213 0
200 -213 0
-202 -213 0
-204 -213 0
-206 -213 0
-208 -213 0
-210 -213 0
-211 -213 0
-212 -213 0
1 -48 190 192 194 196 -198 -200 202 204 206 208 210 211 212 213 0
213 0
c main::$tmp::return_value_nondet_char!0@1#1 17 18 19 20 21 22 23 24
c symex::nondet1 9 10 11 12 13 14 15 16
c symex::nondet0 1 2 3 4 5 6 7 8
c main::$tmp::return_value_nondet_char$0!0@1#2 9 10 11 12 13 14 15 16
c __CPROVER_rounding_mode!0#1 FALSE FALSE FALSE FALSE FALSE FALSE FALSE FALSE FALSE FALSE FALSE FALSE FALSE FALSE FALSE FALSE FALSE FALSE FALSE FALSE FALSE FALSE FALSE FALSE FALSE FALSE FALSE FALSE FALSE FALSE FALSE FALSE
c main::$tmp::return_value_nondet_char$0!0@1#1 25 26 27 28 29 30 31 32
c __CPROVER_memory_leak#1 FALSE FALSE FALSE FALSE FALSE FALSE FALSE FALSE FALSE FALSE FALSE FALSE FALSE FALSE FALSE FALSE FALSE FALSE FALSE FALSE FALSE FALSE FALSE FALSE FALSE FALSE FALSE FALSE FALSE FALSE FALSE FALSE FALSE FALSE FALSE FALSE FALSE FALSE FALSE FALSE FALSE FALSE FALSE FALSE FALSE FALSE FALSE FALSE FALSE FALSE FALSE FALSE FALSE FALSE FALSE FALSE FALSE FALSE FALSE FALSE FALSE FALSE FALSE FALSE
c __CPROVER_max_malloc_size#1 FALSE FALSE FALSE FALSE FALSE FALSE FALSE FALSE FALSE FALSE FALSE FALSE FALSE FALSE FALSE FALSE FALSE FALSE FALSE FALSE FALSE FALSE FALSE FALSE FALSE FALSE FALSE FALSE FALSE FALSE FALSE FALSE FALSE FALSE FALSE FALSE FALSE FALSE FALSE FALSE FALSE FALSE FALSE FALSE FALSE FALSE FALSE FALSE FALSE FALSE FALSE FALSE FALSE FALSE FALSE TRUE FALSE FALSE FALSE FALSE FALSE FALSE FALSE FALSE
c __CPROVER_deallocated#1 FALSE FALSE FALSE FALSE FALSE FALSE FALSE FALSE FALSE FALSE FALSE FALSE FALSE FALSE FALSE FALSE FALSE FALSE FALSE FALSE FALSE FALSE FALSE FALSE FALSE FALSE FALSE FALSE FALSE FALSE FALSE FALSE FALSE FALSE FALSE FALSE FALSE FALSE FALSE FALSE FALSE FALSE FALSE FALSE FALSE FALSE FALSE FALSE FALSE FALSE FALSE FALSE FALSE FALSE FALSE FALSE FALSE FALSE FALSE FALSE FALSE FALSE FALSE FALSE
c main::$tmp::return_value_nondet_char!0@1#2 1 2 3 4 5 6 7 8
c __CPROVER_dead_object#1 FALSE FALSE FALSE FALSE FALSE FALSE FALSE FALSE FALSE FALSE FALSE FALSE FALSE FALSE FALSE FALSE FALSE FALSE FALSE FALSE FALSE FALSE FALSE FALSE FALSE FALSE FALSE FALSE FALSE FALSE FALSE FALSE FALSE FALSE FALSE FALSE FALSE FALSE FALSE FALSE FALSE FALSE FALSE FALSE FALSE FALSE FALSE FALSE FALSE FALSE FALSE FALSE FALSE FALSE FALSE FALSE FALSE FALSE FALSE FALSE FALSE FALSE FALSE FALSE
